(set-info :smt-lib-version 2.6)
(set-logic QF_LIA)
(set-info :source |
Generated by: Martin Bromberger
Generated on: 2018-01-06
Generator: https://www.mpi-inf.mpg.de/fileadmin/inf/rg1/Documents/RandomUnboundedSageScript.tar.gz
Application: This is a satisfiable problem with bounded and unbounded directions and, therefore, a good test for the termination/completeness of branch-and-bound solvers.
Publications: M. Bromberger. A Reduction from Unbounded Linear Mixed Arithmetic Problems into Bounded Problems. (Work in progress.)

The benchmarks in this class were randomly generated by a sagemath script and by way of construction they are all satisfiable.
Target solver: CVC4 Mathsat SPASS-IQ YICES Z3
|)
(set-info :license "https://creativecommons.org/licenses/by/4.0/")
(set-info :category "random")
(set-info :status sat)
(declare-fun x0 () Int)
(declare-fun x1 () Int)
(declare-fun x2 () Int)
(declare-fun x3 () Int)
(declare-fun x4 () Int)
(declare-fun x5 () Int)
(declare-fun x6 () Int)
(declare-fun x7 () Int)
(declare-fun x8 () Int)
(declare-fun x9 () Int)
(declare-fun x10 () Int)
(declare-fun x11 () Int)
(declare-fun x12 () Int)
(declare-fun x13 () Int)
(declare-fun x14 () Int)
(declare-fun x15 () Int)
(declare-fun x16 () Int)
(declare-fun x17 () Int)
(declare-fun x18 () Int)
(declare-fun x19 () Int)
(declare-fun x20 () Int)
(declare-fun x21 () Int)
(declare-fun x22 () Int)
(declare-fun x23 () Int)
(declare-fun x24 () Int)
(declare-fun x25 () Int)
(declare-fun x26 () Int)
(declare-fun x27 () Int)
(declare-fun x28 () Int)
(declare-fun x29 () Int)
(declare-fun x30 () Int)
(declare-fun x31 () Int)
(declare-fun x32 () Int)
(declare-fun x33 () Int)
(declare-fun x34 () Int)
(declare-fun x35 () Int)
(declare-fun x36 () Int)
(declare-fun x37 () Int)
(declare-fun x38 () Int)
(declare-fun x39 () Int)
(declare-fun x40 () Int)
(declare-fun x41 () Int)
(declare-fun x42 () Int)
(declare-fun x43 () Int)
(declare-fun x44 () Int)
(declare-fun x45 () Int)
(declare-fun x46 () Int)
(declare-fun x47 () Int)
(declare-fun x48 () Int)
(declare-fun x49 () Int)

(assert (and 
(<= (- 34) (+ (* (- 2) x1) (+ (* 1 x2) (+ (* (- 2) x3) (+ (* 1 x4) (+ (* 1 x6) (+ (* (- 1) x9) (+ (* (- 2) x10) (+ (* 1 x12) (+ (* (- 2) x13) (+ (* 1 x16) (+ (* 1 x17) (+ (* (- 1) x18) (+ (* 2 x21) (+ (* (- 1) x24) (+ (* (- 2) x27) (+ (* 1 x28) (+ (* (- 2) x31) (+ (* (- 1) x33) (+ (* 2 x34) (+ (* (- 1) x36) (+ (* 2 x37) (+ (* 2 x38) (+ (* 1 x42) (+ (* (- 2) x43) (+ (* 1 x45) (+ (* 2 x46) (* 1 x49) ))))))))))))))))))))))))))) 
(<= (- 15) (+ (* 1 x0) (+ (* 2 x1) (+ (* 2 x4) (+ (* 2 x5) (+ (* 2 x8) (+ (* (- 1) x9) (+ (* 2 x10) (+ (* 2 x12) (+ (* (- 2) x14) (+ (* 1 x17) (+ (* 1 x18) (+ (* 1 x19) (+ (* (- 2) x20) (+ (* (- 1) x21) (+ (* 1 x22) (+ (* 2 x23) (+ (* (- 2) x25) (+ (* (- 2) x27) (+ (* 2 x29) (+ (* (- 1) x30) (+ (* (- 1) x32) (+ (* 1 x34) (+ (* (- 2) x36) (+ (* (- 1) x38) (+ (* 2 x39) (+ (* 2 x41) (+ (* (- 2) x43) (+ (* (- 1) x44) (+ (* (- 1) x47) (* 1 x49) )))))))))))))))))))))))))))))) 
(<= 25 (+ (* (- 2) x2) (+ (* 2 x5) (+ (* 2 x6) (+ (* (- 2) x7) (+ (* 2 x8) (+ (* (- 1) x9) (+ (* (- 1) x10) (+ (* (- 1) x12) (+ (* (- 2) x15) (+ (* (- 1) x16) (+ (* (- 1) x23) (+ (* (- 1) x24) (+ (* 2 x25) (+ (* (- 2) x27) (+ (* (- 2) x29) (+ (* (- 2) x30) (+ (* 2 x32) (+ (* 2 x33) (+ (* 1 x35) (+ (* 1 x41) (+ (* 1 x42) (+ (* 2 x45) (+ (* 2 x46) (* (- 1) x49) )))))))))))))))))))))))) 
(<= (- 2) (+ (* 1 x0) (+ (* (- 1) x1) (+ (* 1 x2) (+ (* 1 x4) (+ (* (- 2) x5) (+ (* 2 x6) (+ (* 1 x7) (+ (* 1 x9) (+ (* 1 x10) (+ (* (- 1) x12) (+ (* (- 1) x13) (+ (* (- 1) x14) (+ (* (- 2) x15) (+ (* (- 2) x16) (+ (* 2 x17) (+ (* (- 1) x18) (+ (* 1 x21) (+ (* 2 x22) (+ (* 1 x23) (+ (* (- 1) x24) (+ (* 1 x28) (+ (* (- 1) x32) (+ (* (- 1) x34) (+ (* (- 2) x35) (+ (* (- 1) x36) (+ (* (- 2) x38) (+ (* 1 x39) (+ (* (- 2) x40) (+ (* (- 1) x41) (+ (* 2 x43) (+ (* 1 x44) (+ (* (- 2) x45) (+ (* (- 1) x47) (* (- 2) x48) )))))))))))))))))))))))))))))))))) 
(<= (- 14) (+ (* (- 1) x0) (+ (* 1 x1) (+ (* 1 x2) (+ (* (- 1) x5) (+ (* (- 2) x7) (+ (* (- 1) x12) (+ (* (- 2) x15) (+ (* 2 x18) (+ (* 2 x21) (+ (* 1 x22) (+ (* (- 1) x24) (+ (* (- 2) x26) (+ (* 1 x27) (+ (* (- 2) x31) (+ (* (- 1) x33) (+ (* 1 x35) (+ (* 1 x38) (+ (* (- 1) x39) (+ (* (- 1) x40) (+ (* 2 x42) (+ (* 1 x46) (+ (* 2 x47) (+ (* 1 x48) (* (- 1) x49) )))))))))))))))))))))))) 
(<= 20 (+ (* 1 x0) (+ (* (- 1) x1) (+ (* (- 2) x3) (+ (* (- 2) x4) (+ (* (- 2) x5) (+ (* (- 2) x7) (+ (* 2 x8) (+ (* (- 2) x10) (+ (* (- 1) x11) (+ (* 1 x12) (+ (* (- 2) x15) (+ (* 1 x17) (+ (* (- 2) x18) (+ (* (- 1) x19) (+ (* 1 x20) (+ (* 1 x21) (+ (* (- 2) x23) (+ (* 1 x24) (+ (* 1 x25) (+ (* 1 x28) (+ (* 1 x29) (+ (* 1 x30) (+ (* 1 x31) (+ (* 2 x32) (+ (* 2 x35) (+ (* (- 1) x39) (+ (* (- 2) x42) (+ (* 1 x43) (+ (* (- 1) x46) (+ (* 1 x48) (* (- 1) x49) ))))))))))))))))))))))))))))))) 
(<= (- 3) (+ (* 2 x1) (+ (* (- 2) x2) (+ (* (- 2) x3) (+ (* (- 1) x4) (+ (* 1 x5) (+ (* 2 x7) (+ (* (- 1) x8) (+ (* (- 2) x13) (+ (* 1 x16) (+ (* (- 2) x20) (+ (* (- 1) x21) (+ (* (- 1) x22) (+ (* (- 2) x23) (+ (* 1 x24) (+ (* (- 2) x25) (+ (* (- 2) x27) (+ (* (- 2) x28) (+ (* 1 x29) (+ (* 2 x30) (+ (* (- 1) x31) (+ (* 2 x33) (+ (* 2 x38) (+ (* 2 x39) (+ (* 2 x40) (+ (* (- 1) x44) (+ (* (- 1) x45) (+ (* (- 2) x47) (* (- 1) x48) )))))))))))))))))))))))))))) 
(<= (- 2) (+ (* 1 x0) (+ (* 1 x1) (+ (* 1 x3) (+ (* (- 2) x10) (+ (* 1 x13) (+ (* (- 1) x15) (+ (* (- 1) x18) (+ (* 2 x19) (+ (* (- 2) x20) (+ (* (- 1) x21) (+ (* (- 1) x23) (+ (* 2 x24) (+ (* (- 1) x25) (+ (* 2 x28) (+ (* 2 x29) (+ (* (- 1) x31) (+ (* 2 x33) (+ (* (- 1) x34) (+ (* 1 x36) (+ (* (- 1) x40) (+ (* (- 1) x41) (+ (* 2 x42) (+ (* (- 1) x45) (+ (* (- 1) x47) (+ (* (- 2) x48) (* 1 x49) )))))))))))))))))))))))))) 
(<= 12 (+ (* (- 1) x2) (+ (* 1 x5) (+ (* (- 1) x6) (+ (* (- 2) x7) (+ (* (- 2) x11) (+ (* 2 x12) (+ (* 1 x13) (+ (* 1 x14) (+ (* (- 2) x17) (+ (* (- 1) x18) (+ (* (- 1) x19) (+ (* (- 2) x20) (+ (* 2 x21) (+ (* (- 2) x24) (+ (* (- 1) x25) (+ (* (- 2) x26) (+ (* 1 x27) (+ (* 1 x28) (+ (* (- 1) x29) (+ (* (- 2) x30) (+ (* 2 x31) (+ (* 1 x33) (+ (* 1 x34) (+ (* 2 x36) (+ (* 1 x37) (+ (* 1 x38) (+ (* 2 x40) (+ (* 2 x41) (+ (* 2 x43) (+ (* 2 x44) (+ (* (- 2) x45) (+ (* (- 1) x46) (* 1 x49) ))))))))))))))))))))))))))))))))) 
(<= (- 45) (+ (* 2 x0) (+ (* 1 x2) (+ (* 1 x3) (+ (* (- 2) x4) (+ (* (- 1) x8) (+ (* 2 x10) (+ (* (- 1) x11) (+ (* 1 x12) (+ (* 2 x14) (+ (* (- 2) x15) (+ (* 1 x16) (+ (* 2 x23) (+ (* (- 1) x25) (+ (* 2 x29) (+ (* 2 x31) (+ (* 2 x34) (+ (* (- 1) x35) (+ (* (- 1) x37) (+ (* (- 1) x39) (+ (* (- 2) x41) (+ (* (- 1) x42) (+ (* 2 x43) (+ (* 2 x44) (+ (* 2 x46) (* 2 x49) ))))))))))))))))))))))))) 
(<= (- 15) (+ (* 1 x0) (+ (* 1 x2) (+ (* 2 x5) (+ (* (- 1) x6) (+ (* (- 1) x7) (+ (* (- 2) x8) (+ (* 2 x9) (+ (* 1 x10) (+ (* (- 2) x11) (+ (* 2 x12) (+ (* (- 1) x13) (+ (* 1 x14) (+ (* 2 x15) (+ (* 1 x16) (+ (* 2 x17) (+ (* (- 2) x19) (+ (* 1 x20) (+ (* (- 1) x21) (+ (* (- 2) x22) (+ (* (- 2) x23) (+ (* (- 2) x24) (+ (* (- 2) x26) (+ (* (- 1) x28) (+ (* (- 2) x30) (+ (* (- 2) x31) (+ (* (- 2) x33) (+ (* 1 x34) (+ (* 1 x36) (+ (* (- 1) x39) (+ (* (- 1) x40) (+ (* (- 1) x41) (+ (* 1 x42) (+ (* (- 2) x43) (+ (* (- 1) x45) (+ (* (- 1) x46) (* (- 2) x47) )))))))))))))))))))))))))))))))))))) 
(<= 14 (+ (* (- 1) x2) (+ (* 1 x3) (+ (* (- 2) x4) (+ (* (- 1) x5) (+ (* (- 1) x7) (+ (* 1 x8) (+ (* 2 x11) (+ (* (- 1) x12) (+ (* (- 1) x13) (+ (* (- 1) x14) (+ (* (- 1) x15) (+ (* (- 1) x17) (+ (* (- 2) x18) (+ (* (- 2) x20) (+ (* 2 x21) (+ (* (- 1) x22) (+ (* 1 x26) (+ (* (- 1) x27) (+ (* (- 2) x28) (+ (* (- 1) x29) (+ (* 1 x30) (+ (* 2 x31) (+ (* (- 2) x33) (+ (* 2 x34) (+ (* 1 x35) (+ (* (- 2) x38) (+ (* (- 1) x40) (+ (* 1 x41) (+ (* (- 2) x42) (+ (* 1 x43) (+ (* (- 1) x44) (+ (* (- 1) x47) (+ (* 1 x48) (* 2 x49) )))))))))))))))))))))))))))))))))) 
(<= 0 (+ (* (- 2) x0) (+ (* 2 x1) (+ (* (- 1) x2) (+ (* 2 x3) (+ (* 2 x4) (+ (* (- 2) x5) (+ (* 1 x11) (+ (* (- 1) x12) (+ (* (- 1) x13) (+ (* (- 1) x16) (+ (* (- 1) x17) (+ (* 2 x20) (+ (* (- 1) x21) (+ (* (- 2) x22) (+ (* 1 x23) (+ (* (- 2) x24) (+ (* (- 2) x26) (+ (* (- 1) x27) (+ (* (- 1) x29) (+ (* (- 2) x30) (+ (* (- 1) x33) (+ (* (- 1) x35) (+ (* 2 x36) (+ (* 1 x41) (+ (* 1 x43) (+ (* 1 x46) (* 2 x49) ))))))))))))))))))))))))))) 
(<= 13 (+ (* (- 1) x0) (+ (* 1 x1) (+ (* 1 x4) (+ (* (- 1) x5) (+ (* 1 x6) (+ (* (- 1) x7) (+ (* (- 2) x8) (+ (* 1 x9) (+ (* (- 1) x10) (+ (* (- 1) x12) (+ (* (- 1) x13) (+ (* (- 1) x17) (+ (* 2 x24) (+ (* (- 1) x27) (+ (* (- 1) x28) (+ (* (- 2) x29) (+ (* (- 2) x32) (+ (* 2 x33) (+ (* 1 x35) (+ (* (- 1) x36) (+ (* 2 x37) (+ (* 2 x38) (+ (* 1 x40) (+ (* 2 x43) (+ (* (- 1) x45) (+ (* 2 x48) (* (- 2) x49) ))))))))))))))))))))))))))) 
(<= (- 12) (+ (* 1 x3) (+ (* 1 x5) (+ (* 2 x7) (+ (* (- 1) x8) (+ (* 1 x10) (+ (* (- 2) x11) (+ (* 2 x12) (+ (* (- 2) x13) (+ (* (- 2) x16) (+ (* (- 1) x17) (+ (* (- 1) x18) (+ (* (- 2) x19) (+ (* (- 2) x20) (+ (* 1 x21) (+ (* 2 x23) (+ (* 2 x24) (+ (* 2 x25) (+ (* 2 x27) (+ (* (- 1) x29) (+ (* 1 x30) (+ (* 1 x31) (+ (* 1 x34) (+ (* 1 x37) (+ (* 2 x39) (+ (* 2 x41) (+ (* 1 x43) (+ (* 2 x44) (+ (* 2 x47) (+ (* 2 x48) (* (- 2) x49) )))))))))))))))))))))))))))))) 
(<= 47 (+ (* (- 2) x1) (+ (* (- 2) x2) (+ (* (- 1) x4) (+ (* (- 1) x7) (+ (* (- 1) x8) (+ (* (- 1) x9) (+ (* (- 2) x14) (+ (* 2 x15) (+ (* 2 x16) (+ (* 2 x18) (+ (* (- 1) x19) (+ (* 1 x20) (+ (* 2 x21) (+ (* (- 1) x22) (+ (* 2 x23) (+ (* 2 x25) (+ (* 2 x28) (+ (* (- 2) x30) (+ (* (- 1) x34) (+ (* (- 2) x39) (+ (* (- 1) x42) (+ (* (- 1) x44) (+ (* 1 x45) (+ (* (- 1) x47) (* (- 1) x49) ))))))))))))))))))))))))) 
(<= (- 10) (+ (* 2 x1) (+ (* (- 1) x9) (+ (* 2 x10) (+ (* 2 x11) (+ (* 1 x12) (+ (* (- 2) x13) (+ (* (- 2) x14) (+ (* 2 x15) (+ (* (- 2) x16) (+ (* (- 2) x19) (+ (* (- 1) x20) (+ (* 1 x21) (+ (* 2 x23) (+ (* (- 2) x24) (+ (* 2 x25) (+ (* (- 1) x26) (+ (* 2 x27) (+ (* 2 x29) (+ (* (- 2) x30) (+ (* (- 2) x31) (+ (* (- 1) x32) (+ (* 2 x35) (+ (* 2 x38) (+ (* (- 1) x40) (+ (* 2 x41) (+ (* 2 x42) (+ (* 1 x43) (+ (* 1 x44) (+ (* 1 x45) (+ (* (- 1) x46) (+ (* (- 2) x47) (+ (* (- 1) x48) (* 1 x49) ))))))))))))))))))))))))))))))))) 
(<= 1 (+ (* 2 x0) (+ (* (- 2) x2) (+ (* 2 x3) (+ (* (- 1) x4) (+ (* (- 1) x8) (+ (* (- 2) x10) (+ (* 2 x14) (+ (* 2 x15) (+ (* (- 2) x16) (+ (* 2 x20) (+ (* (- 2) x21) (+ (* (- 1) x22) (+ (* (- 2) x23) (+ (* (- 2) x25) (+ (* 1 x26) (+ (* 2 x28) (+ (* 1 x31) (+ (* (- 1) x32) (+ (* 2 x35) (+ (* (- 2) x36) (+ (* 1 x37) (+ (* (- 2) x38) (+ (* (- 2) x41) (+ (* 1 x45) (* (- 1) x46) ))))))))))))))))))))))))) 
(<= (- 34) (+ (* 1 x0) (+ (* (- 2) x2) (+ (* (- 2) x3) (+ (* 1 x4) (+ (* (- 1) x6) (+ (* (- 1) x12) (+ (* 1 x14) (+ (* 2 x15) (+ (* 2 x16) (+ (* (- 1) x18) (+ (* (- 2) x19) (+ (* (- 1) x21) (+ (* 1 x26) (+ (* (- 2) x27) (+ (* 2 x28) (+ (* (- 2) x29) (+ (* 2 x30) (+ (* 1 x32) (+ (* (- 2) x33) (+ (* (- 2) x36) (+ (* (- 2) x38) (+ (* (- 2) x39) (+ (* 1 x42) (+ (* 1 x44) (+ (* (- 1) x45) (+ (* 2 x46) (+ (* (- 2) x47) (* (- 1) x48) )))))))))))))))))))))))))))) 
(<= (- 22) (+ (* 1 x0) (+ (* 2 x1) (+ (* 1 x2) (+ (* (- 2) x3) (+ (* 2 x4) (+ (* (- 1) x6) (+ (* (- 1) x7) (+ (* (- 1) x8) (+ (* (- 1) x9) (+ (* (- 1) x10) (+ (* (- 1) x11) (+ (* 1 x12) (+ (* 1 x14) (+ (* 2 x15) (+ (* 1 x16) (+ (* (- 1) x17) (+ (* (- 1) x18) (+ (* (- 1) x20) (+ (* 1 x22) (+ (* (- 2) x24) (+ (* (- 2) x26) (+ (* 2 x28) (+ (* (- 1) x32) (+ (* 2 x33) (+ (* 2 x34) (+ (* (- 2) x37) (+ (* (- 1) x38) (+ (* 2 x39) (+ (* (- 1) x40) (+ (* 2 x41) (+ (* 1 x43) (+ (* 1 x44) (+ (* 2 x45) (+ (* 2 x46) (* 2 x49) ))))))))))))))))))))))))))))))))))) 
(<= (- 17) (+ (* (- 1) x0) (+ (* (- 1) x2) (+ (* 2 x3) (+ (* 2 x4) (+ (* 2 x5) (+ (* 1 x7) (+ (* (- 2) x8) (+ (* 2 x11) (+ (* (- 2) x12) (+ (* 1 x13) (+ (* (- 2) x15) (+ (* (- 2) x16) (+ (* (- 1) x17) (+ (* 1 x18) (+ (* (- 2) x19) (+ (* 2 x22) (+ (* 2 x23) (+ (* (- 2) x24) (+ (* (- 1) x25) (+ (* 2 x26) (+ (* (- 1) x29) (+ (* 1 x30) (+ (* (- 2) x31) (+ (* 1 x32) (+ (* 1 x33) (+ (* 2 x35) (+ (* 2 x36) (+ (* (- 2) x37) (+ (* 2 x40) (+ (* 1 x42) (+ (* 1 x44) (+ (* 1 x45) (* 2 x46) ))))))))))))))))))))))))))))))))) 
(<= 4 (+ (* 2 x1) (+ (* 2 x2) (+ (* 1 x3) (+ (* (- 2) x4) (+ (* (- 1) x6) (+ (* 2 x7) (+ (* (- 1) x8) (+ (* (- 1) x9) (+ (* 2 x10) (+ (* (- 1) x11) (+ (* 1 x13) (+ (* (- 2) x14) (+ (* (- 1) x16) (+ (* (- 1) x20) (+ (* 2 x21) (+ (* (- 1) x23) (+ (* 1 x27) (+ (* 2 x28) (+ (* 1 x29) (+ (* (- 1) x30) (+ (* (- 1) x31) (+ (* 2 x33) (+ (* 2 x35) (+ (* 1 x37) (+ (* 2 x39) (+ (* 2 x40) (+ (* 1 x41) (+ (* (- 2) x42) (+ (* 1 x43) (+ (* (- 1) x45) (+ (* (- 1) x46) (+ (* (- 2) x48) (* 1 x49) ))))))))))))))))))))))))))))))))) 
(<= 11 (+ (* 1 x1) (+ (* 1 x2) (+ (* (- 1) x3) (+ (* (- 2) x4) (+ (* 1 x5) (+ (* 1 x8) (+ (* (- 2) x9) (+ (* (- 2) x11) (+ (* 1 x12) (+ (* 1 x13) (+ (* 2 x14) (+ (* (- 2) x16) (+ (* (- 1) x17) (+ (* (- 1) x19) (+ (* (- 2) x21) (+ (* (- 2) x24) (+ (* 1 x25) (+ (* (- 2) x27) (+ (* (- 2) x28) (+ (* (- 2) x30) (+ (* (- 1) x31) (+ (* 1 x32) (+ (* 1 x33) (+ (* (- 2) x35) (+ (* 1 x36) (+ (* (- 1) x38) (+ (* (- 1) x39) (+ (* 1 x42) (+ (* (- 1) x43) (+ (* (- 1) x45) (+ (* (- 2) x46) (+ (* 1 x47) (* 2 x49) ))))))))))))))))))))))))))))))))) 
(<= 23 (+ (* 1 x3) (+ (* (- 2) x4) (+ (* (- 2) x7) (+ (* (- 1) x9) (+ (* (- 1) x14) (+ (* 1 x16) (+ (* (- 2) x17) (+ (* (- 2) x18) (+ (* 1 x20) (+ (* (- 2) x22) (+ (* (- 2) x23) (+ (* 2 x24) (+ (* 1 x28) (+ (* 1 x29) (+ (* 1 x31) (+ (* (- 1) x32) (+ (* (- 1) x35) (+ (* 1 x38) (+ (* 1 x40) (+ (* (- 1) x43) (+ (* (- 2) x46) (+ (* (- 1) x47) (+ (* 1 x48) (* 2 x49) )))))))))))))))))))))))) 
(<= (- 17) (+ (* (- 1) x0) (+ (* (- 1) x1) (+ (* (- 1) x2) (+ (* 2 x3) (+ (* 2 x4) (+ (* (- 2) x5) (+ (* 2 x9) (+ (* (- 2) x10) (+ (* (- 2) x11) (+ (* (- 2) x12) (+ (* (- 1) x13) (+ (* (- 2) x18) (+ (* (- 2) x19) (+ (* 2 x20) (+ (* 1 x22) (+ (* 2 x25) (+ (* 1 x26) (+ (* 1 x27) (+ (* 1 x28) (+ (* (- 1) x30) (+ (* (- 2) x31) (+ (* 2 x32) (+ (* 2 x33) (+ (* 2 x34) (+ (* 2 x35) (+ (* (- 2) x36) (+ (* (- 1) x37) (+ (* 2 x38) (+ (* (- 2) x39) (+ (* (- 1) x41) (+ (* 2 x42) (+ (* 2 x46) (+ (* 1 x48) (* 2 x49) )))))))))))))))))))))))))))))))))) 
(<= 0 (+ (* 1 x2) (+ (* (- 2) x3) (+ (* 1 x6) (+ (* (- 2) x9) (+ (* (- 2) x11) (+ (* (- 1) x12) (+ (* 2 x13) (+ (* (- 1) x16) (+ (* 1 x17) (+ (* (- 1) x18) (+ (* 1 x19) (+ (* 1 x20) (+ (* (- 2) x23) (+ (* 1 x25) (+ (* (- 1) x28) (+ (* 1 x29) (+ (* 2 x30) (+ (* 1 x31) (+ (* (- 2) x32) (+ (* (- 1) x33) (+ (* (- 2) x34) (+ (* 2 x37) (+ (* (- 1) x38) (+ (* (- 1) x39) (+ (* (- 1) x40) (+ (* (- 1) x41) (+ (* (- 2) x42) (+ (* 1 x45) (+ (* 2 x46) (+ (* 2 x48) (* (- 2) x49) ))))))))))))))))))))))))))))))) 
(<= (- 16) (+ (* 2 x1) (+ (* (- 2) x3) (+ (* 2 x4) (+ (* 1 x8) (+ (* (- 1) x9) (+ (* 2 x11) (+ (* (- 1) x12) (+ (* (- 2) x15) (+ (* 1 x19) (+ (* (- 2) x22) (+ (* 1 x23) (+ (* 2 x25) (+ (* (- 1) x26) (+ (* (- 2) x28) (+ (* 1 x30) (+ (* 2 x32) (+ (* (- 1) x34) (+ (* (- 1) x39) (+ (* 2 x41) (+ (* 2 x43) (+ (* (- 1) x44) (+ (* 2 x46) (+ (* 1 x47) (+ (* 1 x48) (* 1 x49) ))))))))))))))))))))))))) 
(<= 6 (+ (* (- 1) x1) (+ (* 2 x3) (+ (* (- 2) x6) (+ (* 2 x7) (+ (* (- 2) x8) (+ (* (- 1) x9) (+ (* (- 2) x10) (+ (* (- 2) x11) (+ (* (- 2) x13) (+ (* 1 x14) (+ (* 1 x16) (+ (* (- 1) x18) (+ (* (- 1) x19) (+ (* (- 2) x20) (+ (* (- 2) x24) (+ (* (- 1) x25) (+ (* (- 2) x27) (+ (* 1 x28) (+ (* 2 x30) (+ (* (- 1) x31) (+ (* 2 x32) (+ (* (- 1) x34) (+ (* (- 1) x37) (+ (* 1 x38) (+ (* (- 2) x41) (+ (* 1 x43) (+ (* (- 2) x44) (+ (* (- 2) x46) (+ (* (- 2) x47) (* 1 x48) )))))))))))))))))))))))))))))) 
(<= 3 (+ (* (- 2) x0) (+ (* 2 x1) (+ (* (- 2) x3) (+ (* (- 1) x4) (+ (* 1 x6) (+ (* (- 2) x9) (+ (* (- 2) x10) (+ (* 1 x11) (+ (* (- 1) x12) (+ (* 1 x14) (+ (* (- 1) x15) (+ (* 2 x18) (+ (* 2 x20) (+ (* (- 1) x21) (+ (* (- 1) x22) (+ (* 2 x24) (+ (* 2 x25) (+ (* (- 1) x26) (+ (* 2 x27) (+ (* (- 2) x28) (+ (* (- 2) x30) (+ (* (- 1) x31) (+ (* (- 2) x32) (+ (* (- 1) x33) (+ (* (- 2) x34) (+ (* 1 x35) (+ (* 1 x36) (+ (* 2 x40) (+ (* 1 x41) (+ (* 2 x46) (* (- 2) x48) ))))))))))))))))))))))))))))))) 
(<= (- 34) (+ (* 1 x0) (+ (* (- 1) x1) (+ (* (- 2) x2) (+ (* (- 1) x4) (+ (* (- 2) x5) (+ (* 1 x7) (+ (* (- 2) x8) (+ (* (- 2) x9) (+ (* 1 x11) (+ (* (- 2) x12) (+ (* (- 1) x13) (+ (* 2 x14) (+ (* 1 x15) (+ (* 2 x16) (+ (* 2 x17) (+ (* (- 1) x18) (+ (* (- 2) x19) (+ (* 2 x23) (+ (* (- 2) x25) (+ (* 1 x26) (+ (* 1 x27) (+ (* 2 x32) (+ (* 1 x33) (+ (* 1 x34) (+ (* (- 1) x35) (+ (* (- 2) x37) (+ (* (- 1) x39) (+ (* 2 x41) (+ (* (- 2) x42) (+ (* (- 1) x43) (+ (* (- 2) x45) (+ (* 2 x46) (* 1 x47) ))))))))))))))))))))))))))))))))) 
(<= (- 6) (+ (* (- 1) x1) (+ (* (- 1) x4) (+ (* 2 x5) (+ (* 2 x6) (+ (* (- 1) x7) (+ (* 2 x8) (+ (* 2 x9) (+ (* 2 x10) (+ (* (- 2) x11) (+ (* (- 2) x12) (+ (* (- 1) x13) (+ (* (- 2) x15) (+ (* 1 x16) (+ (* 1 x17) (+ (* (- 1) x18) (+ (* 1 x19) (+ (* 1 x20) (+ (* (- 2) x22) (+ (* 2 x23) (+ (* (- 1) x24) (+ (* 2 x25) (+ (* 2 x26) (+ (* (- 1) x27) (+ (* 1 x28) (+ (* 2 x29) (+ (* 2 x30) (+ (* (- 1) x34) (+ (* (- 1) x36) (+ (* (- 2) x37) (+ (* (- 2) x39) (+ (* (- 1) x40) (+ (* (- 1) x43) (+ (* 1 x44) (+ (* 1 x47) (+ (* 2 x48) (* (- 1) x49) )))))))))))))))))))))))))))))))))))) 
(<= 11 (+ (* (- 2) x3) (+ (* 1 x6) (+ (* 1 x7) (+ (* (- 2) x14) (+ (* (- 1) x15) (+ (* (- 1) x17) (+ (* 1 x18) (+ (* 1 x20) (+ (* (- 2) x21) (+ (* 2 x22) (+ (* 1 x23) (+ (* (- 2) x25) (+ (* (- 2) x27) (+ (* (- 1) x29) (+ (* (- 2) x30) (+ (* 2 x34) (+ (* (- 2) x35) (+ (* (- 1) x37) (+ (* 2 x38) (+ (* (- 1) x39) (+ (* 2 x43) (+ (* (- 1) x44) (+ (* (- 2) x45) (+ (* (- 2) x48) (* (- 2) x49) ))))))))))))))))))))))))) 
(<= (- 21) (+ (* 1 x2) (+ (* 1 x3) (+ (* (- 2) x4) (+ (* 2 x5) (+ (* (- 2) x6) (+ (* (- 2) x7) (+ (* 2 x10) (+ (* 1 x12) (+ (* 1 x13) (+ (* (- 1) x17) (+ (* 2 x21) (+ (* (- 1) x22) (+ (* 1 x23) (+ (* (- 1) x24) (+ (* (- 1) x25) (+ (* (- 1) x27) (+ (* (- 2) x28) (+ (* 2 x29) (+ (* (- 1) x31) (+ (* (- 2) x32) (+ (* 2 x33) (+ (* 2 x35) (+ (* (- 1) x36) (+ (* 2 x37) (+ (* 1 x38) (+ (* (- 1) x39) (+ (* 2 x41) (+ (* 2 x44) (+ (* (- 1) x45) (+ (* (- 2) x46) (+ (* 2 x47) (+ (* (- 2) x48) (* 1 x49) ))))))))))))))))))))))))))))))))) 
(<= 51 (+ (* (- 1) x0) (+ (* (- 1) x2) (+ (* 2 x3) (+ (* 2 x4) (+ (* (- 2) x5) (+ (* (- 1) x6) (+ (* 1 x7) (+ (* (- 1) x8) (+ (* (- 1) x10) (+ (* 2 x11) (+ (* 1 x12) (+ (* 1 x13) (+ (* 2 x14) (+ (* 1 x15) (+ (* (- 2) x16) (+ (* (- 2) x17) (+ (* 1 x18) (+ (* (- 1) x19) (+ (* 1 x20) (+ (* 2 x21) (+ (* 2 x25) (+ (* 1 x26) (+ (* 1 x29) (+ (* 2 x31) (+ (* 2 x32) (+ (* (- 2) x33) (+ (* (- 2) x34) (+ (* (- 2) x35) (+ (* 2 x36) (+ (* 1 x43) (+ (* 1 x44) (+ (* 1 x45) (+ (* (- 2) x46) (+ (* (- 2) x47) (+ (* 1 x48) (* (- 2) x49) )))))))))))))))))))))))))))))))))))) 
(<= (- 29) (+ (* 2 x0) (+ (* 1 x1) (+ (* (- 1) x2) (+ (* (- 1) x3) (+ (* 2 x4) (+ (* 2 x5) (+ (* 2 x7) (+ (* (- 2) x8) (+ (* 2 x9) (+ (* (- 2) x10) (+ (* 1 x11) (+ (* 1 x13) (+ (* 1 x14) (+ (* (- 1) x16) (+ (* 2 x20) (+ (* (- 1) x21) (+ (* (- 2) x25) (+ (* 1 x27) (+ (* (- 2) x28) (+ (* 2 x30) (+ (* 2 x33) (+ (* (- 1) x36) (+ (* 1 x38) (+ (* (- 2) x39) (+ (* (- 2) x40) (+ (* 2 x41) (+ (* 1 x42) (+ (* (- 2) x43) (+ (* 1 x44) (+ (* 1 x45) (+ (* (- 2) x46) (* 1 x48) )))))))))))))))))))))))))))))))) 
(<= (- 22) (+ (* 2 x0) (+ (* (- 1) x1) (+ (* 1 x2) (+ (* 2 x4) (+ (* 2 x6) (+ (* (- 2) x9) (+ (* 1 x10) (+ (* 1 x13) (+ (* 1 x15) (+ (* 2 x16) (+ (* 1 x17) (+ (* 1 x19) (+ (* 1 x20) (+ (* 1 x21) (+ (* (- 1) x24) (+ (* (- 1) x25) (+ (* 2 x26) (+ (* 2 x28) (+ (* (- 1) x29) (+ (* 2 x30) (+ (* 1 x31) (+ (* 1 x36) (+ (* (- 2) x40) (+ (* (- 1) x41) (+ (* (- 1) x43) (+ (* 1 x44) (+ (* (- 1) x45) (+ (* (- 2) x46) (+ (* (- 1) x47) (* (- 1) x48) )))))))))))))))))))))))))))))) 
(<= (- 41) (+ (* 1 x5) (+ (* (- 1) x6) (+ (* 1 x7) (+ (* 1 x9) (+ (* 1 x10) (+ (* (- 1) x11) (+ (* (- 1) x12) (+ (* 2 x13) (+ (* 2 x14) (+ (* 2 x16) (+ (* (- 1) x17) (+ (* 2 x18) (+ (* (- 1) x19) (+ (* 1 x20) (+ (* (- 2) x21) (+ (* (- 2) x22) (+ (* (- 2) x26) (+ (* 2 x27) (+ (* (- 2) x29) (+ (* 2 x30) (+ (* 2 x32) (+ (* (- 2) x33) (+ (* 1 x34) (+ (* 1 x37) (+ (* (- 1) x40) (+ (* 2 x41) (+ (* (- 1) x45) (+ (* 2 x47) (+ (* 1 x48) (* (- 1) x49) )))))))))))))))))))))))))))))) 
(<= (- 6) (+ (* 1 x0) (+ (* 1 x1) (+ (* (- 2) x2) (+ (* 2 x5) (+ (* 1 x8) (+ (* 2 x9) (+ (* (- 1) x10) (+ (* 2 x11) (+ (* (- 2) x13) (+ (* (- 2) x14) (+ (* 1 x15) (+ (* (- 2) x16) (+ (* (- 1) x17) (+ (* (- 2) x18) (+ (* 1 x23) (+ (* (- 1) x28) (+ (* 2 x32) (+ (* 2 x35) (+ (* (- 1) x37) (+ (* (- 1) x39) (+ (* (- 1) x40) (+ (* 1 x41) (+ (* (- 2) x43) (* 1 x48) )))))))))))))))))))))))) 
(<= 15 (+ (* 1 x1) (+ (* (- 1) x2) (+ (* (- 1) x3) (+ (* 1 x4) (+ (* (- 2) x5) (+ (* (- 2) x6) (+ (* (- 2) x7) (+ (* 1 x8) (+ (* (- 1) x10) (+ (* (- 2) x12) (+ (* (- 1) x14) (+ (* (- 1) x15) (+ (* 1 x17) (+ (* (- 1) x24) (+ (* (- 1) x25) (+ (* 1 x26) (+ (* 2 x27) (+ (* 2 x29) (+ (* (- 2) x30) (+ (* 2 x32) (+ (* 1 x34) (+ (* 2 x36) (+ (* 2 x37) (+ (* 2 x39) (+ (* 1 x43) (+ (* 1 x44) (+ (* 2 x45) (+ (* (- 1) x46) (+ (* 2 x47) (* (- 2) x49) )))))))))))))))))))))))))))))) 
(<= (- 5) (+ (* (- 2) x0) (+ (* (- 1) x2) (+ (* 1 x3) (+ (* (- 2) x6) (+ (* 2 x8) (+ (* (- 2) x10) (+ (* 2 x11) (+ (* (- 2) x13) (+ (* 1 x14) (+ (* (- 2) x15) (+ (* 2 x16) (+ (* 2 x17) (+ (* 2 x19) (+ (* 2 x22) (+ (* 1 x26) (+ (* (- 1) x27) (+ (* 2 x28) (+ (* 2 x30) (+ (* (- 1) x31) (+ (* 1 x33) (+ (* (- 1) x34) (+ (* 1 x35) (+ (* (- 1) x39) (+ (* 1 x40) (+ (* (- 1) x41) (+ (* (- 1) x42) (+ (* 2 x43) (+ (* (- 1) x44) (+ (* (- 2) x46) (+ (* (- 2) x47) (+ (* 2 x48) (* 2 x49) )))))))))))))))))))))))))))))))) 
(<= 10 (+ (* 1 x0) (+ (* (- 2) x1) (+ (* 2 x5) (+ (* 1 x6) (+ (* 2 x8) (+ (* 1 x9) (+ (* (- 1) x11) (+ (* (- 1) x12) (+ (* (- 1) x16) (+ (* (- 2) x17) (+ (* (- 1) x19) (+ (* 2 x22) (+ (* (- 2) x24) (+ (* (- 1) x25) (+ (* 1 x26) (+ (* 1 x28) (+ (* 1 x29) (+ (* 1 x31) (+ (* 1 x32) (+ (* (- 2) x34) (+ (* (- 2) x35) (+ (* (- 2) x38) (+ (* (- 1) x39) (+ (* 1 x45) (* 1 x49) ))))))))))))))))))))))))) 
(<= 9 (+ (* 2 x0) (+ (* 1 x2) (+ (* 1 x3) (+ (* 1 x5) (+ (* (- 2) x6) (+ (* 1 x8) (+ (* (- 1) x10) (+ (* (- 2) x11) (+ (* (- 1) x12) (+ (* 2 x13) (+ (* 1 x14) (+ (* (- 2) x16) (+ (* 1 x18) (+ (* (- 2) x19) (+ (* 2 x21) (+ (* (- 2) x22) (+ (* (- 1) x23) (+ (* 2 x24) (+ (* (- 2) x26) (+ (* (- 1) x29) (+ (* 2 x31) (+ (* (- 2) x34) (+ (* (- 2) x36) (+ (* (- 2) x37) (+ (* 2 x38) (+ (* (- 1) x40) (+ (* 2 x44) (* (- 1) x46) )))))))))))))))))))))))))))) 
(<= 16 (+ (* (- 2) x0) (+ (* (- 1) x2) (+ (* 1 x3) (+ (* 2 x4) (+ (* 1 x5) (+ (* (- 1) x6) (+ (* (- 2) x9) (+ (* 1 x10) (+ (* (- 1) x11) (+ (* (- 1) x12) (+ (* (- 1) x15) (+ (* 2 x17) (+ (* 2 x19) (+ (* (- 1) x20) (+ (* 1 x21) (+ (* 1 x23) (+ (* 2 x24) (+ (* 1 x25) (+ (* 2 x26) (+ (* (- 1) x27) (+ (* (- 1) x29) (+ (* (- 1) x34) (+ (* (- 1) x35) (+ (* (- 2) x37) (+ (* 2 x38) (+ (* (- 1) x40) (+ (* 2 x41) (+ (* 2 x42) (+ (* (- 2) x43) (+ (* 2 x44) (+ (* 1 x45) (+ (* (- 1) x46) (* (- 1) x47) ))))))))))))))))))))))))))))))))) 
(<= 13 (+ (* (- 1) x0) (+ (* (- 1) x1) (+ (* (- 2) x2) (+ (* (- 1) x3) (+ (* (- 1) x6) (+ (* (- 1) x7) (+ (* (- 2) x8) (+ (* (- 2) x9) (+ (* (- 2) x13) (+ (* 2 x15) (+ (* (- 1) x16) (+ (* (- 2) x17) (+ (* 2 x18) (+ (* 2 x22) (+ (* (- 1) x23) (+ (* (- 2) x24) (+ (* 2 x25) (+ (* (- 2) x26) (+ (* (- 2) x29) (+ (* (- 2) x31) (+ (* 2 x32) (+ (* (- 1) x33) (+ (* (- 2) x35) (+ (* 2 x36) (+ (* 2 x37) (+ (* (- 2) x40) (+ (* (- 2) x41) (+ (* 2 x42) (+ (* 1 x43) (+ (* 2 x44) (+ (* (- 2) x45) (+ (* (- 2) x47) (+ (* (- 2) x48) (* (- 1) x49) )))))))))))))))))))))))))))))))))) 
(<= 47 (+ (* (- 2) x1) (+ (* 2 x2) (+ (* (- 2) x4) (+ (* 1 x5) (+ (* 2 x6) (+ (* 2 x7) (+ (* (- 1) x8) (+ (* 1 x9) (+ (* (- 1) x10) (+ (* 2 x12) (+ (* (- 1) x13) (+ (* (- 1) x14) (+ (* 2 x15) (+ (* (- 2) x16) (+ (* (- 1) x17) (+ (* 1 x18) (+ (* 2 x21) (+ (* (- 2) x22) (+ (* 1 x23) (+ (* 2 x26) (+ (* 1 x28) (+ (* (- 1) x30) (+ (* (- 1) x31) (+ (* 2 x32) (+ (* (- 1) x34) (+ (* (- 1) x35) (+ (* 1 x37) (+ (* 1 x39) (+ (* 2 x40) (+ (* (- 2) x41) (+ (* (- 1) x42) (+ (* 1 x44) (+ (* (- 2) x46) (+ (* (- 1) x47) (+ (* 2 x48) (* (- 1) x49) )))))))))))))))))))))))))))))))))))) 
(<= 2 (+ (* (- 2) x1) (+ (* 2 x3) (+ (* (- 1) x4) (+ (* 1 x8) (+ (* 1 x9) (+ (* (- 2) x10) (+ (* 1 x11) (+ (* 1 x14) (+ (* (- 1) x17) (+ (* 2 x18) (+ (* (- 2) x19) (+ (* 1 x20) (+ (* 2 x21) (+ (* 2 x23) (+ (* (- 2) x24) (+ (* 1 x25) (+ (* (- 2) x27) (+ (* 1 x28) (+ (* 2 x30) (+ (* (- 2) x31) (+ (* (- 1) x32) (+ (* (- 1) x34) (+ (* 2 x36) (+ (* (- 1) x37) (+ (* 2 x38) (+ (* 2 x41) (+ (* 1 x46) (* 1 x49) )))))))))))))))))))))))))))) 
(<= (- 1) (+ (* 1 x0) (+ (* (- 1) x3) (+ (* (- 2) x4) (+ (* (- 1) x5) (+ (* (- 2) x6) (+ (* (- 2) x7) (+ (* 2 x9) (+ (* 1 x10) (+ (* (- 1) x12) (+ (* (- 1) x14) (+ (* 1 x15) (+ (* (- 1) x16) (+ (* (- 2) x19) (+ (* (- 1) x21) (+ (* 1 x22) (+ (* (- 2) x23) (+ (* (- 2) x26) (+ (* 2 x30) (+ (* 2 x32) (+ (* (- 2) x34) (+ (* 1 x35) (+ (* 1 x36) (+ (* 2 x37) (+ (* 1 x40) (+ (* (- 2) x42) (+ (* (- 2) x43) (+ (* 1 x45) (+ (* (- 2) x46) (* (- 2) x48) ))))))))))))))))))))))))))))) 
(<= (- 3) (+ (* (- 2) x0) (+ (* (- 2) x3) (+ (* 2 x4) (+ (* 2 x5) (+ (* (- 1) x7) (+ (* 2 x10) (+ (* 2 x11) (+ (* (- 1) x12) (+ (* 2 x16) (+ (* (- 2) x17) (+ (* 2 x18) (+ (* 2 x19) (+ (* 2 x20) (+ (* (- 1) x21) (+ (* 2 x22) (+ (* (- 2) x23) (+ (* (- 1) x24) (+ (* 1 x25) (+ (* (- 2) x28) (+ (* 1 x29) (+ (* (- 2) x33) (+ (* 2 x35) (+ (* (- 1) x36) (+ (* (- 1) x37) (+ (* 2 x39) (+ (* 1 x40) (+ (* 1 x42) (+ (* (- 2) x44) (+ (* (- 1) x45) (+ (* (- 1) x46) (+ (* 2 x47) (* (- 2) x48) )))))))))))))))))))))))))))))))) 
(<= 14 (+ (* 2 x1) (+ (* 2 x3) (+ (* 2 x4) (+ (* (- 2) x8) (+ (* 2 x9) (+ (* (- 2) x10) (+ (* 1 x12) (+ (* (- 1) x14) (+ (* 2 x18) (+ (* (- 1) x19) (+ (* 2 x21) (+ (* 1 x22) (+ (* (- 1) x23) (+ (* (- 2) x24) (+ (* 2 x25) (+ (* (- 1) x27) (+ (* 2 x28) (+ (* 2 x29) (+ (* 1 x31) (+ (* (- 2) x32) (+ (* 2 x33) (+ (* (- 1) x34) (+ (* 2 x36) (+ (* (- 2) x39) (+ (* (- 1) x40) (+ (* (- 2) x41) (+ (* (- 2) x44) (+ (* 2 x46) (+ (* 1 x48) (* (- 1) x49) )))))))))))))))))))))))))))))) 
(<= 94 (+ (* (- 21) x0) (+ (* (- 11) x1) (+ (* 9 x2) (+ (* (- 30) x3) (+ (* 38 x4) (+ (* (- 22) x5) (+ (* 24 x6) (+ (* 12 x7) (+ (* 21 x8) (+ (* 8 x9) (+ (* 22 x10) (+ (* 24 x11) (+ (* 8 x12) (+ (* 11 x13) (+ (* (- 31) x14) (+ (* 23 x15) (+ (* 12 x16) (+ (* 24 x17) (+ (* (- 2) x18) (+ (* 57 x19) (+ (* 2 x20) (+ (* (- 32) x21) (+ (* 8 x22) (+ (* 10 x23) (+ (* 27 x24) (+ (* 1 x25) (+ (* 9 x26) (+ (* 14 x27) (+ (* (- 28) x28) (+ (* (- 8) x29) (+ (* (- 24) x30) (+ (* (- 1) x31) (+ (* (- 22) x32) (+ (* (- 17) x33) (+ (* 21 x34) (+ (* (- 21) x35) (+ (* (- 29) x36) (+ (* 9 x37) (+ (* (- 15) x38) (+ (* 22 x39) (+ (* (- 20) x40) (+ (* (- 4) x41) (+ (* 13 x42) (+ (* (- 18) x43) (+ (* (- 24) x44) (+ (* 22 x45) (+ (* 20 x46) (+ (* 16 x47) (+ (* (- 3) x48) (* (- 25) x49) )))))))))))))))))))))))))))))))))))))))))))))))))) 
(<= (- 45) (+ (* 52 x0) (+ (* 19 x1) (+ (* (- 16) x2) (+ (* 102 x3) (+ (* (- 114) x4) (+ (* 45 x5) (+ (* (- 60) x6) (+ (* (- 45) x7) (+ (* (- 46) x8) (+ (* (- 22) x9) (+ (* (- 63) x10) (+ (* (- 52) x11) (+ (* (- 10) x12) (+ (* (- 9) x13) (+ (* 81 x14) (+ (* (- 75) x15) (+ (* (- 48) x16) (+ (* (- 63) x17) (+ (* (- 2) x18) (+ (* (- 131) x19) (+ (* (- 7) x20) (+ (* 78 x21) (+ (* (- 17) x22) (+ (* (- 31) x23) (+ (* (- 68) x24) (+ (* (- 28) x25) (+ (* (- 30) x26) (+ (* (- 22) x27) (+ (* 61 x28) (+ (* 22 x29) (+ (* 53 x30) (+ (* 10 x31) (+ (* 23 x32) (+ (* 26 x33) (+ (* (- 55) x34) (+ (* 52 x35) (+ (* 93 x36) (+ (* (- 26) x37) (+ (* 15 x38) (+ (* (- 49) x39) (+ (* 48 x40) (+ (* 5 x41) (+ (* (- 35) x42) (+ (* 41 x43) (+ (* 61 x44) (+ (* (- 44) x45) (+ (* (- 54) x46) (+ (* (- 41) x47) (+ (* (- 4) x48) (* 72 x49) )))))))))))))))))))))))))))))))))))))))))))))))))) 
(<= (- 424) (+ (* (- 26) x0) (+ (* (- 12) x1) (+ (* 33 x2) (+ (* (- 94) x3) (+ (* 51 x4) (+ (* (- 39) x5) (+ (* 38 x6) (+ (* 73 x7) (+ (* 30 x8) (+ (* 30 x9) (+ (* 80 x10) (+ (* 8 x11) (+ (* (- 3) x12) (+ (* (- 17) x13) (+ (* (- 61) x14) (+ (* 62 x15) (+ (* 42 x16) (+ (* 53 x17) (+ (* (- 12) x18) (+ (* 59 x19) (+ (* (- 11) x20) (+ (* (- 56) x21) (+ (* (- 10) x22) (+ (* 49 x23) (+ (* 58 x24) (+ (* 42 x25) (+ (* 34 x26) (+ (* 10 x27) (+ (* (- 31) x28) (+ (* (- 15) x29) (+ (* (- 16) x30) (+ (* (- 9) x31) (+ (* 39 x32) (+ (* (- 18) x33) (+ (* 48 x34) (+ (* (- 52) x35) (+ (* (- 82) x36) (+ (* 21 x37) (+ (* 2 x38) (+ (* 30 x39) (+ (* (- 18) x40) (+ (* (- 2) x41) (+ (* (- 1) x42) (+ (* (- 25) x43) (+ (* (- 40) x44) (+ (* 13 x45) (+ (* 38 x46) (+ (* 55 x47) (+ (* 22 x48) (* (- 56) x49) )))))))))))))))))))))))))))))))))))))))))))))))))) 
(<= 1326 (+ (* (- 61) x0) (+ (* 16 x1) (+ (* (- 43) x2) (+ (* 31 x3) (+ (* 109 x4) (+ (* 1 x5) (+ (* 33 x6) (+ (* (- 87) x7) (+ (* 8 x8) (+ (* (- 52) x9) (+ (* (- 61) x10) (+ (* 107 x11) (+ (* 36 x12) (+ (* 97 x13) (+ (* (- 5) x14) (+ (* (- 1) x15) (+ (* (- 1) x16) (+ (* (- 13) x17) (+ (* 52 x18) (+ (* 135 x19) (+ (* 32 x20) (+ (* (- 19) x21) (+ (* 61 x22) (+ (* (- 81) x23) (+ (* 18 x24) (+ (* (- 52) x25) (+ (* (- 33) x26) (+ (* 36 x27) (+ (* (- 79) x28) (+ (* (- 24) x29) (+ (* (- 71) x30) (+ (* 19 x31) (+ (* (- 174) x32) (+ (* 13 x33) (+ (* (- 12) x34) (+ (* 43 x35) (+ (* 29 x36) (+ (* (- 4) x37) (+ (* (- 21) x38) (+ (* 46 x39) (+ (* (- 24) x40) (+ (* 9 x41) (+ (* 60 x42) (+ (* (- 13) x43) (+ (* (- 38) x44) (+ (* 58 x45) (+ (* 29 x46) (+ (* (- 54) x47) (+ (* (- 54) x48) (* (- 15) x49) )))))))))))))))))))))))))))))))))))))))))))))))))) 
(<= (- 1346) (+ (* 37 x0) (+ (* (- 65) x1) (+ (* 65 x2) (+ (* (- 126) x3) (+ (* (- 13) x4) (+ (* (- 30) x5) (+ (* 14 x6) (+ (* 114 x7) (+ (* 42 x8) (+ (* 92 x9) (+ (* 105 x10) (+ (* (- 88) x11) (+ (* (- 1) x12) (+ (* (- 99) x13) (+ (* (- 79) x14) (+ (* 86 x15) (+ (* 51 x16) (+ (* 76 x17) (+ (* (- 51) x18) (+ (* (- 23) x19) (+ (* (- 20) x20) (+ (* (- 55) x21) (+ (* (- 33) x22) (+ (* 112 x23) (+ (* 39 x24) (+ (* 73 x25) (+ (* 55 x26) (+ (* (- 20) x27) (+ (* 55 x28) (+ (* 6 x29) (+ (* 28 x30) (+ (* (- 29) x31) (+ (* 145 x32) (+ (* (- 64) x33) (+ (* 65 x34) (+ (* (- 106) x35) (+ (* (- 131) x36) (+ (* 32 x37) (+ (* (- 13) x38) (+ (* (- 27) x39) (+ (* (- 48) x40) (+ (* (- 61) x41) (+ (* (- 14) x42) (+ (* (- 40) x43) (+ (* (- 14) x44) (+ (* (- 33) x45) (+ (* 4 x46) (+ (* 89 x47) (+ (* 76 x48) (* (- 59) x49) )))))))))))))))))))))))))))))))))))))))))))))))))) 
(<= (- 1124) (+ (* (- 26) x0) (+ (* (- 53) x1) (+ (* 69 x2) (+ (* (- 149) x3) (+ (* 9 x4) (+ (* (- 65) x5) (+ (* 51 x6) (+ (* 146 x7) (+ (* 52 x8) (+ (* 82 x9) (+ (* 161 x10) (+ (* (- 43) x11) (+ (* (- 13) x12) (+ (* (- 79) x13) (+ (* (- 86) x14) (+ (* 89 x15) (+ (* 64 x16) (+ (* 86 x17) (+ (* (- 40) x18) (+ (* 18 x19) (+ (* (- 14) x20) (+ (* (- 95) x21) (+ (* (- 51) x22) (+ (* 104 x23) (+ (* 90 x24) (+ (* 93 x25) (+ (* 67 x26) (+ (* 23 x27) (+ (* (- 11) x28) (+ (* (- 16) x29) (+ (* (- 6) x30) (+ (* (- 22) x31) (+ (* 154 x32) (+ (* (- 84) x33) (+ (* 85 x34) (+ (* (- 116) x35) (+ (* (- 128) x36) (+ (* 25 x37) (+ (* (- 6) x38) (+ (* 28 x39) (+ (* (- 9) x40) (+ (* (- 25) x41) (+ (* (- 20) x42) (+ (* (- 54) x43) (+ (* (- 42) x44) (+ (* (- 12) x45) (+ (* 42 x46) (+ (* 123 x47) (+ (* 58 x48) (* (- 100) x49) ))))))))))))))))))))))))))))))))))))))))))))))))))))
(check-sat)
(exit)